Geographic Exponential Decay
40 111 123 89 7 78 126 239 308 146 18 170 287 317 92 248 247 222 242 152 108 265 180 85 121 13 173 255 254 204 165 31 279 133 132 227 181 161 8 168 207
p edge 320 1286
e 0 250 15.0
e 0 246 16.0
e 0 49 9.0
e 0 52 5.0
e 0 16 7.0
e 0 110 5.0
e 0 181 54.0
e 1 123 31.0
e 1 306 2.0
e 1 203 11.0
e 1 147 10.0
e 2 212 2.0
e 3 156 1.0
e 4 185 1.0
e 4 30 3.0
e 5 58 1.0
e 5 94 1.0
e 5 198 12.0
e 5 29 1.0
e 6 257 4.0
e 6 264 2.0
e 7 106 41.0
e 7 203 40.0
e 7 131 7.0
e 7 125 64.0
e 7 94 55.0
e 7 236 66.0
e 7 83 8.0
e 7 173 84.0
e 7 301 71.0
e 7 172 27.0
e 7 22 17.0
e 7 52 25.0
e 7 139 35.0
e 7 25 79.0
e 7 26 14.0
e 7 220 67.0
e 7 297 48.0
e 7 141 64.0
e 7 149 36.0
e 7 234 31.0
e 7 281 73.0
e 7 214 43.0
e 7 241 71.0
e 7 318 49.0
e 7 95 61.0
e 7 302 42.0
e 7 158 28.0
e 8 200 24.0
e 8 79 90.0
e 8 32 97.0
e 8 19 69.0
e 8 89 44.0
e 8 64 40.0
e 8 218 12.0
e 8 225 15.0
e 8 35 93.0
e 8 114 32.0
e 8 83 2.0
e 8 13 11.0
e 8 267 26.0
e 8 216 11.0
e 8 128 27.0
e 8 235 9.0
e 8 104 60.0
e 8 59 68.0
e 8 289 82.0
e 8 34 72.0
e 8 201 53.0
e 8 105 74.0
e 8 217 68.0
e 8 174 73.0
e 8 258 55.0
e 8 142 87.0
e 8 60 60.0
e 9 301 6.0
e 10 19 1.0
e 10 262 4.0
e 11 293 2.0
e 12 68 1.0
e 12 61 1.0
e 13 134 97.0
e 13 282 12.0
e 13 104 94.0
e 13 257 49.0
e 13 77 88.0
e 13 285 3.0
e 13 306 97.0
e 13 286 66.0
e 13 278 69.0
e 13 173 51.0
e 13 188 88.0
e 13 52 45.0
e 13 39 53.0
e 13 228 78.0
e 13 170 55.0
e 13 98 16.0
e 13 103 71.0
e 13 176 26.0
e 13 237 31.0
e 13 172 77.0
e 13 155 75.0
e 13 106 3.0
e 13 207 64.0
e 13 208 61.0
e 13 287 29.0
e 13 115 36.0
e 14 65 1.0
e 15 217 3.0
e 17 214 2.0
e 18 258 6.0
e 18 10 49.0
e 18 171 78.0
e 18 94 43.0
e 18 43 33.0
e 18 176 11.0
e 18 220 19.0
e 18 68 72.0
e 18 56 23.0
e 18 235 85.0
e 18 211 53.0
e 18 253 8.0
e 18 181 98.0
e 18 47 58.0
e 18 223 44.0
e 18 82 4.0
e 18 4 17.0
e 18 312 29.0
e 18 124 46.0
e 18 204 3.0
e 18 24 69.0
e 18 97 47.0
e 18 276 73.0
e 18 102 3.0
e 18 244 80.0
e 18 11 82.0
e 18 21 26.0
e 20 309 6.0
e 20 182 3.0
e 20 174 1.0
e 20 73 25.0
e 21 201 4.0
e 23 126 43.0
e 23 295 7.0
e 23 224 1.0
e 23 110 6.0
e 24 13 13.0
e 24 317 92.0
e 24 259 1.0
e 25 124 1.0
e 26 90 10.0
e 26 121 79.0
e 26 259 7.0
e 27 179 1.0
e 28 215 3.0
e 28 288 5.0
e 28 267 3.0
e 28 13 89.0
e 31 133 39.0
e 31 159 64.0
e 31 235 26.0
e 31 205 44.0
e 31 264 21.0
e 31 82 13.0
e 31 74 94.0
e 31 318 57.0
e 31 102 32.0
e 31 282 61.0
e 31 172 70.0
e 31 204 41.0
e 31 290 55.0
e 31 2 68.0
e 31 39 87.0
e 31 30 62.0
e 31 10 41.0
e 31 301 64.0
e 31 35 38.0
e 31 26 30.0
e 31 63 25.0
e 31 271 40.0
e 31 198 78.0
e 31 69 57.0
e 31 273 40.0
e 31 147 4.0
e 31 120 73.0
e 33 136 9.0
e 34 39 2.0
e 36 269 1.0
e 37 148 5.0
e 37 190 1.0
e 38 33 2.0
e 40 70 7.0
e 40 19 2.0
e 40 53 11.0
e 40 257 8.0
e 41 274 3.0
e 41 218 3.0
e 42 232 5.0
e 42 125 4.0
e 44 301 4.0
e 45 274 2.0
e 45 142 1.0
e 46 86 3.0
e 47 219 10.0
e 47 92 52.0
e 47 258 4.0
e 48 84 5.0
e 49 146 21.0
e 49 76 9.0
e 49 119 8.0
e 50 191 3.0
e 50 299 3.0
e 51 167 2.0
e 53 44 8.0
e 53 264 1.0
e 53 12 7.0
e 54 116 1.0
e 55 168 87.0
e 57 3 1.0
e 58 239 37.0
e 59 74 36.0
e 59 105 13.0
e 59 16 16.0
e 59 136 27.0
e 59 12 41.0
e 59 68 28.0
e 59 57 40.0
e 59 143 47.0
e 59 159 42.0
e 59 36 25.0
e 59 35 35.0
e 59 180 24.0
e 59 48 34.0
e 60 38 8.0
e 60 4 11.0
e 60 291 5.0
e 61 72 2.0
e 62 276 11.0
e 62 102 8.0
e 62 93 7.0
e 62 44 8.0
e 64 81 22.0
e 64 135 17.0
e 64 240 25.0
e 64 162 22.0
e 64 156 20.0
e 64 102 20.0
e 66 104 6.0
e 67 51 4.0
e 67 178 1.0
e 71 194 3.0
e 73 104 13.0
e 73 119 14.0
e 73 185 22.0
e 73 288 6.0
e 73 54 8.0
e 73 44 9.0
e 75 281 1.0
e 77 317 59.0
e 77 309 8.0
e 77 57 5.0
e 78 14 11.0
e 78 135 5.0
e 78 233 63.0
e 78 79 46.0
e 78 25 13.0
e 78 212 12.0
e 78 48 85.0
e 78 162 27.0
e 78 253 75.0
e 78 316 91.0
e 78 83 82.0
e 78 43 14.0
e 78 229 94.0
e 78 66 39.0
e 78 295 97.0
e 78 241 22.0
e 78 192 80.0
e 78 67 43.0
e 78 164 11.0
e 78 32 32.0
e 78 68 95.0
e 78 33 37.0
e 78 304 7.0
e 78 47 72.0
e 78 290 43.0
e 78 40 45.0
e 78 167 1.0
e 79 173 20.0
e 79 250 11.0
e 80 243 8.0
e 80 170 93.0
e 80 124 21.0
e 80 27 20.0
e 80 239 87.0
e 80 63 22.0
e 80 136 14.0
e 81 198 1.0
e 82 71 3.0
e 82 209 11.0
e 84 268 2.0
e 84 54 11.0
e 84 220 11.0
e 85 81 4.0
e 85 195 8.0
e 85 94 95.0
e 85 171 20.0
e 85 110 92.0
e 85 59 27.0
e 85 179 13.0
e 85 264 40.0
e 85 92 44.0
e 85 129 51.0
e 85 172 25.0
e 85 220 5.0
e 85 41 90.0
e 85 267 89.0
e 85 180 73.0
e 85 203 65.0
e 85 204 58.0
e 85 16 27.0
e 85 82 32.0
e 85 66 80.0
e 85 173 18.0
e 85 125 64.0
e 85 253 74.0
e 85 233 93.0
e 85 268 61.0
e 85 168 39.0
e 85 295 91.0
e 86 44 1.0
e 87 166 2.0
e 88 183 5.0
e 88 16 6.0
e 88 77 4.0
e 88 30 7.0
e 89 224 91.0
e 89 92 9.0
e 89 128 70.0
e 89 129 5.0
e 89 22 20.0
e 89 277 96.0
e 89 20 10.0
e 89 183 74.0
e 89 4 75.0
e 89 135 55.0
e 89 36 61.0
e 89 278 67.0
e 89 125 32.0
e 89 188 24.0
e 89 223 50.0
e 89 44 16.0
e 89 171 36.0
e 89 234 71.0
e 89 282 3.0
e 89 54 32.0
e 89 19 47.0
e 89 159 95.0
e 89 176 99.0
e 89 270 83.0
e 89 239 50.0
e 89 26 98.0
e 90 175 6.0
e 91 291 1.0
e 92 256 17.0
e 92 186 71.0
e 92 282 52.0
e 92 182 78.0
e 92 129 46.0
e 92 151 91.0
e 92 28 18.0
e 92 264 90.0
e 92 34 51.0
e 92 153 100.0
e 92 67 48.0
e 92 189 25.0
e 92 19 64.0
e 92 205 25.0
e 92 286 45.0
e 92 63 40.0
e 92 188 76.0
e 92 140 7.0
e 92 198 84.0
e 92 105 35.0
e 92 102 81.0
e 92 287 49.0
e 92 300 36.0
e 92 238 54.0
e 96 26 4.0
e 98 117 3.0
e 99 226 2.0
e 100 56 2.0
e 101 149 1.0
e 103 104 2.0
e 107 194 6.0
e 108 74 83.0
e 108 68 74.0
e 108 121 97.0
e 108 88 57.0
e 108 85 79.0
e 108 173 75.0
e 108 139 57.0
e 108 140 23.0
e 108 24 39.0
e 108 215 15.0
e 108 6 57.0
e 108 174 64.0
e 108 43 80.0
e 108 296 33.0
e 108 221 72.0
e 108 102 41.0
e 108 274 54.0
e 108 284 78.0
e 108 82 27.0
e 108 136 9.0
e 108 223 13.0
e 108 124 10.0
e 108 219 23.0
e 108 47 1.0
e 108 268 73.0
e 108 31 4.0
e 108 290 47.0
e 109 204 44.0
e 109 242 36.0
e 110 256 11.0
e 111 87 21.0
e 111 88 63.0
e 111 279 64.0
e 111 61 75.0
e 111 50 13.0
e 111 27 71.0
e 111 283 19.0
e 111 174 71.0
e 111 228 12.0
e 111 183 57.0
e 111 290 13.0
e 111 272 41.0
e 111 116 76.0
e 111 124 83.0
e 111 164 77.0
e 111 309 98.0
e 111 175 91.0
e 111 35 45.0
e 111 52 71.0
e 111 33 24.0
e 111 197 36.0
e 111 192 50.0
e 111 89 8.0
e 111 311 63.0
e 111 109 13.0
e 111 220 17.0
e 111 169 100.0
e 112 1 17.0
e 112 38 20.0
e 112 259 4.0
e 112 204 47.0
e 112 144 11.0
e 112 201 21.0
e 112 99 22.0
e 113 292 1.0
e 113 232 3.0
e 115 134 12.0
e 115 190 3.0
e 115 22 3.0
e 118 21 6.0
e 118 291 8.0
e 118 22 6.0
e 118 52 9.0
e 119 179 9.0
e 119 257 5.0
e 121 152 92.0
e 121 235 30.0
e 121 142 56.0
e 121 55 56.0
e 121 169 99.0
e 121 114 65.0
e 121 130 92.0
e 121 99 55.0
e 121 65 34.0
e 121 86 86.0
e 121 284 2.0
e 121 236 84.0
e 121 283 26.0
e 121 34 7.0
e 121 54 17.0
e 121 17 66.0
e 121 126 33.0
e 121 302 72.0
e 121 216 51.0
e 121 101 99.0
e 121 115 16.0
e 121 219 60.0
e 121 270 75.0
e 121 132 30.0
e 121 58 38.0
e 122 217 12.0
e 122 229 12.0
e 122 314 12.0
e 122 274 6.0
e 123 46 11.0
e 123 285 13.0
e 123 270 4.0
e 123 160 54.0
e 123 316 16.0
e 123 257 93.0
e 123 109 96.0
e 123 182 69.0
e 123 266 69.0
e 123 77 18.0
e 123 183 10.0
e 123 2 35.0
e 123 274 61.0
e 123 286 44.0
e 123 6 38.0
e 123 9 95.0
e 123 301 99.0
e 123 268 46.0
e 123 11 81.0
e 123 304 11.0
e 123 239 9.0
e 123 279 79.0
e 123 131 9.0
e 123 161 92.0
e 123 209 29.0
e 123 271 99.0
e 126 45 12.0
e 126 60 63.0
e 126 284 66.0
e 126 107 8.0
e 126 243 57.0
e 126 294 80.0
e 126 43 93.0
e 126 164 57.0
e 126 289 51.0
e 126 222 94.0
e 126 1 54.0
e 126 161 8.0
e 126 263 97.0
e 126 34 63.0
e 126 57 52.0
e 126 260 71.0
e 126 7 50.0
e 126 112 70.0
e 126 103 43.0
e 126 69 88.0
e 126 178 12.0
e 126 259 24.0
e 126 141 67.0
e 126 54 24.0
e 126 317 89.0
e 127 154 4.0
e 127 8 6.0
e 130 77 21.0
e 130 23 5.0
e 130 125 9.0
e 130 158 14.0
e 130 43 5.0
e 130 199 22.0
e 132 201 95.0
e 132 257 29.0
e 132 9 4.0
e 132 7 88.0
e 132 144 67.0
e 132 169 28.0
e 132 187 58.0
e 132 26 89.0
e 132 63 41.0
e 132 259 76.0
e 132 280 29.0
e 132 68 39.0
e 132 74 36.0
e 132 112 25.0
e 132 58 58.0
e 132 222 42.0
e 132 27 38.0
e 132 209 11.0
e 132 10 97.0
e 132 273 44.0
e 132 278 86.0
e 132 51 27.0
e 132 214 33.0
e 132 8 43.0
e 132 42 80.0
e 132 197 33.0
e 133 35 43.0
e 133 228 57.0
e 133 226 9.0
e 133 156 87.0
e 133 32 94.0
e 133 285 84.0
e 133 105 15.0
e 133 49 89.0
e 133 241 45.0
e 133 45 16.0
e 133 16 73.0
e 133 38 54.0
e 133 143 19.0
e 133 123 27.0
e 133 132 64.0
e 133 199 44.0
e 133 154 18.0
e 133 268 56.0
e 133 173 95.0
e 133 137 81.0
e 133 306 53.0
e 133 257 17.0
e 133 243 92.0
e 133 41 3.0
e 133 40 7.0
e 133 247 69.0
e 135 191 2.0
e 138 4 6.0
e 138 13 12.0
e 139 53 1.0
e 139 54 8.0
e 142 184 1.0
e 143 11 1.0
e 143 42 3.0
e 145 178 1.0
e 145 133 38.0
e 145 308 68.0
e 145 296 5.0
e 146 171 3.0
e 146 288 62.0
e 146 109 62.0
e 146 81 76.0
e 146 243 30.0
e 146 202 68.0
e 146 37 63.0
e 146 129 65.0
e 146 298 27.0
e 146 253 69.0
e 146 179 68.0
e 146 304 51.0
e 146 295 86.0
e 146 155 16.0
e 146 181 60.0
e 146 205 64.0
e 146 225 85.0
e 146 221 64.0
e 146 71 96.0
e 146 23 96.0
e 146 222 44.0
e 146 3 24.0
e 146 229 80.0
e 146 16 3.0
e 146 233 50.0
e 146 260 45.0
e 150 246 3.0
e 150 263 1.0
e 150 193 7.0
e 150 264 7.0
e 152 237 25.0
e 152 313 22.0
e 152 310 48.0
e 152 75 14.0
e 152 122 73.0
e 152 117 88.0
e 152 49 20.0
e 152 46 70.0
e 152 82 9.0
e 152 41 69.0
e 152 17 34.0
e 152 302 66.0
e 152 83 18.0
e 152 312 64.0
e 152 202 3.0
e 152 206 57.0
e 152 42 34.0
e 152 133 5.0
e 152 195 41.0
e 152 224 66.0
e 152 130 4.0
e 152 181 10.0
e 152 123 99.0
e 152 114 78.0
e 152 34 70.0
e 152 222 25.0
e 154 42 10.0
e 154 268 1.0
e 157 263 19.0
e 157 13 11.0
e 157 131 45.0
e 157 134 44.0
e 157 120 18.0
e 157 147 22.0
e 157 121 47.0
e 157 249 4.0
e 157 174 40.0
e 157 307 24.0
e 157 284 37.0
e 157 8 94.0
e 157 94 14.0
e 157 158 19.0
e 160 260 4.0
e 161 255 98.0
e 161 309 92.0
e 161 243 42.0
e 161 168 7.0
e 161 97 41.0
e 161 81 55.0
e 161 216 44.0
e 161 214 5.0
e 161 144 23.0
e 161 303 67.0
e 161 201 61.0
e 161 316 99.0
e 161 150 34.0
e 161 202 54.0
e 161 192 12.0
e 161 302 4.0
e 161 44 50.0
e 161 48 98.0
e 161 191 15.0
e 161 260 93.0
e 161 257 98.0
e 161 20 90.0
e 161 298 5.0
e 161 245 72.0
e 161 188 29.0
e 163 256 1.0
e 163 178 5.0
e 165 216 80.0
e 165 233 99.0
e 165 201 23.0
e 165 259 5.0
e 165 27 43.0
e 165 161 59.0
e 165 48 76.0
e 165 51 22.0
e 165 82 22.0
e 165 172 6.0
e 165 242 91.0
e 165 218 56.0
e 165 307 6.0
e 165 112 18.0
e 165 179 56.0
e 165 79 35.0
e 165 59 74.0
e 165 100 88.0
e 165 114 16.0
e 165 192 86.0
e 165 308 86.0
e 165 193 77.0
e 165 14 88.0
e 165 150 57.0
e 165 197 55.0
e 165 138 84.0
e 165 133 13.0
e 166 1 3.0
e 168 82 4.0
e 168 102 59.0
e 168 230 53.0
e 168 25 50.0
e 168 10 72.0
e 168 77 86.0
e 168 116 79.0
e 168 269 53.0
e 168 11 5.0
e 168 14 76.0
e 168 169 49.0
e 168 101 6.0
e 168 103 66.0
e 168 317 87.0
e 168 206 44.0
e 168 78 91.0
e 168 199 6.0
e 168 79 79.0
e 168 209 65.0
e 168 276 1.0
e 168 305 58.0
e 168 8 56.0
e 168 143 78.0
e 168 4 20.0
e 170 294 42.0
e 170 315 1.0
e 170 307 2.0
e 170 249 57.0
e 170 72 10.0
e 170 161 15.0
e 170 40 28.0
e 170 193 68.0
e 170 289 27.0
e 170 263 35.0
e 170 309 76.0
e 170 171 1.0
e 170 42 65.0
e 170 87 17.0
e 170 34 31.0
e 170 156 26.0
e 170 234 87.0
e 170 244 25.0
e 170 45 31.0
e 170 308 74.0
e 170 5 61.0
e 170 310 50.0
e 170 221 89.0
e 170 84 23.0
e 170 0 27.0
e 171 249 5.0
e 171 33 4.0
e 173 216 35.0
e 173 174 60.0
e 173 272 55.0
e 173 94 100.0
e 173 190 88.0
e 173 53 42.0
e 173 9 36.0
e 173 39 84.0
e 173 298 98.0
e 173 198 46.0
e 173 24 44.0
e 173 167 30.0
e 173 73 74.0
e 173 140 12.0
e 173 107 56.0
e 173 82 29.0
e 173 162 41.0
e 173 246 60.0
e 173 26 69.0
e 173 309 6.0
e 173 36 48.0
e 175 268 4.0
e 175 317 89.0
e 177 147 2.0
e 180 227 72.0
e 180 307 19.0
e 180 205 77.0
e 180 187 94.0
e 180 134 60.0
e 180 181 25.0
e 180 253 36.0
e 180 206 47.0
e 180 31 63.0
e 180 149 64.0
e 180 108 100.0
e 180 113 44.0
e 180 21 82.0
e 180 115 83.0
e 180 94 61.0
e 180 5 8.0
e 180 50 47.0
e 180 98 96.0
e 180 157 100.0
e 180 64 61.0
e 180 172 29.0
e 180 103 48.0
e 180 109 30.0
e 180 61 22.0
e 180 302 43.0
e 181 128 30.0
e 181 258 64.0
e 181 105 63.0
e 181 240 80.0
e 181 202 64.0
e 181 151 8.0
e 181 209 25.0
e 181 20 22.0
e 181 167 20.0
e 181 161 55.0
e 181 235 44.0
e 181 166 88.0
e 181 262 7.0
e 181 264 66.0
e 181 243 34.0
e 181 103 7.0
e 181 153 24.0
e 181 277 32.0
e 181 125 45.0
e 181 156 10.0
e 181 150 65.0
e 181 121 77.0
e 186 139 12.0
e 193 146 31.0
e 196 174 1.0
e 203 95 8.0
e 203 193 21.0
e 203 283 20.0
e 203 138 6.0
e 204 119 40.0
e 204 263 30.0
e 204 135 94.0
e 204 104 22.0
e 204 12 34.0
e 204 24 52.0
e 204 23 31.0
e 204 277 100.0
e 204 156 83.0
e 204 292 31.0
e 204 115 10.0
e 204 129 68.0
e 204 86 64.0
e 204 70 10.0
e 204 209 58.0
e 204 197 65.0
e 204 116 46.0
e 204 77 100.0
e 204 241 97.0
e 204 91 71.0
e 204 35 38.0
e 204 141 71.0
e 207 270 4.0
e 207 149 29.0
e 207 239 26.0
e 207 126 88.0
e 207 120 17.0
e 207 304 85.0
e 207 69 43.0
e 207 117 89.0
e 207 196 98.0
e 207 121 28.0
e 207 73 68.0
e 207 262 44.0
e 207 219 16.0
e 207 80 98.0
e 207 291 17.0
e 207 203 19.0
e 207 38 82.0
e 207 112 37.0
e 207 287 63.0
e 207 92 67.0
e 207 280 42.0
e 207 288 25.0
e 207 193 22.0
e 207 39 58.0
e 207 22 23.0
e 207 45 31.0
e 208 129 7.0
e 208 178 10.0
e 208 170 93.0
e 210 189 2.0
e 211 55 2.0
e 212 36 2.0
e 212 48 1.0
e 213 106 1.0
e 222 9 48.0
e 222 53 36.0
e 222 41 57.0
e 222 109 66.0
e 222 282 96.0
e 222 75 17.0
e 222 169 98.0
e 222 120 63.0
e 222 115 34.0
e 222 1 80.0
e 222 27 20.0
e 222 10 19.0
e 222 29 54.0
e 222 269 66.0
e 222 52 89.0
e 222 85 87.0
e 222 37 60.0
e 222 77 61.0
e 222 245 14.0
e 222 304 13.0
e 222 30 20.0
e 222 116 21.0
e 222 33 68.0
e 227 315 44.0
e 227 283 89.0
e 227 63 61.0
e 227 160 32.0
e 227 265 91.0
e 227 294 45.0
e 227 220 59.0
e 227 256 7.0
e 227 25 17.0
e 227 173 26.0
e 227 309 65.0
e 227 189 73.0
e 227 191 36.0
e 227 111 76.0
e 227 137 33.0
e 227 181 1.0
e 227 171 82.0
e 227 23 8.0
e 227 147 87.0
e 227 269 22.0
e 227 237 79.0
e 227 196 15.0
e 227 57 56.0
e 227 225 33.0
e 227 73 86.0
e 227 10 49.0
e 230 20 11.0
e 230 274 2.0
e 230 59 8.0
e 231 205 2.0
e 234 272 3.0
e 234 178 8.0
e 234 76 5.0
e 234 223 10.0
e 235 281 18.0
e 235 238 22.0
e 239 66 91.0
e 239 244 59.0
e 239 165 48.0
e 239 18 65.0
e 239 238 58.0
e 239 106 26.0
e 239 233 52.0
e 239 83 46.0
e 239 163 50.0
e 239 201 49.0
e 239 183 35.0
e 239 281 66.0
e 239 202 38.0
e 239 283 73.0
e 239 34 89.0
e 239 307 32.0
e 239 112 84.0
e 239 212 78.0
e 239 317 11.0
e 239 291 31.0
e 239 45 52.0
e 239 277 32.0
e 242 92 9.0
e 242 302 76.0
e 242 125 55.0
e 242 128 78.0
e 242 272 3.0
e 242 50 5.0
e 242 86 40.0
e 242 81 76.0
e 242 8 65.0
e 242 55 5.0
e 242 68 27.0
e 242 183 16.0
e 242 171 10.0
e 242 256 85.0
e 242 30 3.0
e 242 132 33.0
e 242 149 72.0
e 242 146 5.0
e 242 184 26.0
e 242 18 13.0
e 242 126 56.0
e 242 47 57.0
e 242 300 21.0
e 242 111 82.0
e 242 26 8.0
e 247 300 45.0
e 247 87 66.0
e 247 48 83.0
e 247 199 100.0
e 247 153 50.0
e 247 233 73.0
e 247 105 82.0
e 247 4 72.0
e 247 97 56.0
e 247 12 41.0
e 247 76 1.0
e 247 0 3.0
e 247 217 100.0
e 247 279 96.0
e 247 310 51.0
e 247 27 40.0
e 247 306 63.0
e 247 212 50.0
e 247 6 81.0
e 247 252 2.0
e 247 32 22.0
e 247 295 23.0
e 247 265 51.0
e 247 254 55.0
e 247 42 27.0
e 247 253 97.0
e 248 219 39.0
e 248 126 16.0
e 248 226 18.0
e 248 94 43.0
e 248 230 95.0
e 248 302 4.0
e 248 28 71.0
e 248 78 19.0
e 248 286 51.0
e 248 67 82.0
e 248 103 14.0
e 248 183 12.0
e 248 108 54.0
e 248 173 44.0
e 248 3 42.0
e 248 70 31.0
e 248 310 25.0
e 248 153 21.0
e 248 91 66.0
e 248 179 36.0
e 248 86 33.0
e 248 276 83.0
e 248 132 50.0
e 248 75 38.0
e 248 33 68.0
e 248 117 79.0
e 248 11 80.0
e 251 252 1.0
e 254 88 19.0
e 254 130 76.0
e 254 304 98.0
e 254 239 17.0
e 254 255 45.0
e 254 57 46.0
e 254 147 35.0
e 254 58 88.0
e 254 233 25.0
e 254 135 91.0
e 254 231 52.0
e 254 261 97.0
e 254 2 43.0
e 254 251 65.0
e 254 119 85.0
e 254 38 52.0
e 254 232 93.0
e 254 192 32.0
e 254 39 50.0
e 254 93 14.0
e 254 162 46.0
e 254 80 83.0
e 254 140 15.0
e 254 15 3.0
e 254 291 31.0
e 254 318 80.0
e 255 129 49.0
e 255 186 97.0
e 255 138 6.0
e 255 6 5.0
e 255 204 96.0
e 255 84 44.0
e 255 293 46.0
e 255 184 7.0
e 255 93 36.0
e 255 11 55.0
e 255 168 90.0
e 255 49 99.0
e 255 9 77.0
e 255 105 39.0
e 255 294 21.0
e 255 60 28.0
e 255 91 34.0
e 255 224 72.0
e 255 39 70.0
e 255 216 11.0
e 255 151 42.0
e 255 175 93.0
e 255 63 87.0
e 255 173 3.0
e 255 237 50.0
e 265 187 15.0
e 265 141 54.0
e 265 31 65.0
e 265 130 42.0
e 265 195 86.0
e 265 142 72.0
e 265 116 23.0
e 265 43 12.0
e 265 283 29.0
e 265 104 36.0
e 265 285 97.0
e 265 164 28.0
e 265 16 97.0
e 265 123 70.0
e 265 17 83.0
e 265 55 43.0
e 265 211 47.0
e 265 148 18.0
e 265 184 24.0
e 265 305 12.0
e 265 28 52.0
e 265 110 21.0
e 265 91 76.0
e 265 190 27.0
e 265 156 8.0
e 266 173 5.0
e 275 59 50.0
e 278 133 43.0
e 279 312 37.0
e 279 72 97.0
e 279 253 38.0
e 279 271 64.0
e 279 57 84.0
e 279 58 86.0
e 279 2 83.0
e 279 110 9.0
e 279 227 1.0
e 279 100 53.0
e 279 23 52.0
e 279 168 40.0
e 279 217 28.0
e 279 105 34.0
e 279 281 44.0
e 279 152 80.0
e 279 67 21.0
e 279 293 70.0
e 279 208 100.0
e 279 43 61.0
e 279 225 36.0
e 279 270 56.0
e 279 285 77.0
e 279 272 8.0
e 282 288 7.0
e 282 170 55.0
e 287 185 21.0
e 287 25 41.0
e 287 67 4.0
e 287 299 73.0
e 287 297 2.0
e 287 21 96.0
e 287 45 23.0
e 287 184 72.0
e 287 292 83.0
e 287 22 61.0
e 287 20 59.0
e 287 186 42.0
e 287 24 40.0
e 287 288 27.0
e 287 132 42.0
e 287 40 68.0
e 287 224 91.0
e 287 193 82.0
e 287 255 99.0
e 287 304 57.0
e 287 155 45.0
e 287 280 12.0
e 287 182 22.0
e 287 46 54.0
e 292 163 2.0
e 292 217 8.0
e 292 12 14.0
e 292 213 17.0
e 296 58 1.0
e 296 89 69.0
e 308 99 57.0
e 308 64 53.0
e 308 140 10.0
e 308 66 43.0
e 308 83 89.0
e 308 166 48.0
e 308 53 32.0
e 308 214 74.0
e 308 14 32.0
e 308 132 100.0
e 308 316 30.0
e 308 176 61.0
e 308 9 44.0
e 308 15 87.0
e 308 244 9.0
e 308 167 19.0
e 308 133 56.0
e 308 177 81.0
e 308 126 46.0
e 308 162 57.0
e 308 276 23.0
e 308 245 27.0
e 308 189 90.0
e 308 231 1.0
e 311 113 11.0
e 311 184 1.0
e 311 134 8.0
e 313 122 9.0
e 317 300 3.0
e 317 215 33.0
e 317 37 64.0
e 317 162 85.0
e 317 209 46.0
e 317 154 57.0
e 317 267 24.0
e 317 28 97.0
e 317 265 93.0
e 317 174 33.0
e 317 206 54.0
e 317 274 46.0
e 317 74 83.0
e 317 225 5.0
e 317 289 77.0
e 317 29 36.0
e 317 216 57.0
e 317 51 68.0
e 317 197 16.0
e 317 261 8.0
e 317 277 7.0
e 319 134 19.0
e 319 301 13.0
e 319 253 1.0
e 319 98 2.0
e 319 112 21.0
e 319 240 20.0
e 319 220 20.0
